
Gurobi 6.0.4 (win64) logging started 06/18/15 16:03:16

Read LP format model from file C:\MT\repository\VRPTWMS\instances\mip\freight\N8-C_DV10-C_SV50_F18_3_No_1.lp
Reading time = 0.01 seconds
(null): 417 rows, 200 columns, 1659 nonzeros
Optimize a model with 417 rows, 200 columns and 1659 nonzeros
Model has 512 quadratic constraints
Coefficient statistics:
  Matrix range    [1e+00, 1e+06]
  Objective range [2e+04, 1e+07]
  Bounds range    [1e+00, 1e+06]
  RHS range       [1e+00, 1e+06]
Presolve removed 83 rows and 36 columns
Presolve time: 0.02s
Presolved: 968 rows, 481 columns, 5214 nonzeros
Variable types: 317 continuous, 164 integer (133 binary)
Found heuristic solution: objective 8.383260e+07

Root relaxation: objective 1.181559e+07, 70 iterations, 0.00 seconds

    Nodes    |    Current Node    |     Objective Bounds      |     Work
 Expl Unexpl |  Obj  Depth IntInf | Incumbent    BestBd   Gap | It/Node Time

     0     0 1.1816e+07    0   26 8.3833e+07 1.1816e+07  85.9%     -    0s
H    0     0                    5.273690e+07 1.1816e+07  77.6%     -    0s
     0     0 1.2893e+07    0   36 5.2737e+07 1.2893e+07  75.6%     -    0s
     0     0 1.3501e+07    0   37 5.2737e+07 1.3501e+07  74.4%     -    0s
H    0     0                    4.276010e+07 1.3501e+07  68.4%     -    0s
     0     0 1.3907e+07    0   24 4.2760e+07 1.3907e+07  67.5%     -    0s
     0     0 1.3907e+07    0   24 4.2760e+07 1.3907e+07  67.5%     -    0s
H    0     0                    4.259780e+07 1.3907e+07  67.4%     -    0s
H    0     0                    3.251770e+07 1.3907e+07  57.2%     -    0s
     0     0 1.3907e+07    0   24 3.2518e+07 1.3907e+07  57.2%     -    0s
     0     2 1.3907e+07    0   22 3.2518e+07 1.3907e+07  57.2%     -    0s
*   12     0               6    3.244870e+07 1.4516e+07  55.3%  12.8    0s
*   41    13              11    3.214000e+07 1.4516e+07  54.8%  11.5    0s
H  125    31                    3.206620e+07 1.9137e+07  40.3%   9.0    0s
*  178     0              12    3.206160e+07 1.9137e+07  40.3%   8.1    0s
*  222     3               9    3.203950e+07 2.1662e+07  32.4%   7.8    0s

Cutting planes:
  Learned: 1
  Gomory: 1
  Cover: 8
  Implied bound: 15
  Clique: 4
  MIR: 7
  GUB cover: 7

Explored 266 nodes (2183 simplex iterations) in 0.17 seconds
Thread count was 2 (of 4 available processors)

Optimal solution found (tolerance 1.00e-04)
Best objective 3.203950000000e+07, best bound 3.203950000000e+07, gap 0.0%
k_c1	100000.0
k_c2	49999.999999999985
k_c3	70000.00000000003
k_c4	30000.0
k_c5	20000.0
k_c6	29999.999999999985
k_c7	100000.0
k_c8	100000.0
k_dN	-0.0
o_1	-0.0
o_2	-0.0
o_3	-0.0
o_4	-0.0
o_5	-0.0
o_6	-0.0
o_7	-0.0
o_8	-0.0
p_1	-0.0
p_2	-0.0
p_3	-0.0
p_4	0.0
p_5	0.0
p_6	-0.0
p_7	-0.0
p_8	-0.0
phi_c1	158217.0
phi_c2	163074.0
phi_c3	153934.99999999997
phi_c4	42676.0
phi_c5	16170.0
phi_c6	158846.00000000006
phi_c7	169422.99999999997
phi_c8	169764.0
phi_d0	180000.0
phi_dN	-0.0
tauD_c1	100000.0
tauD_c2	500000.0
tauD_c3	300000.0
tauD_c4	650000.0
tauD_c5	800000.0
tauD_c6	585800.0
tauD_c7	521900.0
tauD_c8	300000.0
tauD_d0	-0.0
tauD_dN	1000000.0
tauS_c1	-0.0
tauS_c2	-0.0
tauS_c3	-0.0
tauS_c4	29050.0
tauS_c5	-0.0
tauS_c6	-0.0
tauS_c7	-0.0
tauS_c8	-0.0
tauS_d0	-0.0
tauS_dN	116850.0
x_c1_c3	1.0
x_c2_c6	1.0
x_c3_c5	1.0
x_c4_dN	1.0000000000000007
x_c5_dN	1.0
x_c6_dN	1.0000000000000004
x_c7_c4	1.0
x_c8_c2	1.0
x_d0_c1	1.0
x_d0_c7	1.0
x_d0_c8	1.0
